Version identifier: 12.10.0.0 | 2019-11-26 | 843d4de
CPXPARAM_WorkMem                                 28672
Tried aggregator 2 times.
Aggregator did 60 substitutions.
Reduced MIP has 203 rows, 240 columns, and 945 nonzeros.
Reduced MIP has 240 binaries, 0 generals, 0 SOSs, and 0 indicators.
Presolve time = 0,00 sec. (0,89 ticks)
Found incumbent of value 930,000000 after 0,00 sec. (1,60 ticks)
Probing time = 0,00 sec. (0,34 ticks)
Tried aggregator 1 time.
Detecting symmetries...
MIP Presolve eliminated 36 rows and 0 columns.
MIP Presolve added 72 rows and 0 columns.
Reduced MIP has 239 rows, 240 columns, and 981 nonzeros.
Reduced MIP has 240 binaries, 0 generals, 0 SOSs, and 0 indicators.
Presolve time = 0,00 sec. (1,04 ticks)
Probing time = 0,00 sec. (0,33 ticks)
Clique table members: 665.
MIP emphasis: balance optimality and feasibility.
MIP search method: dynamic search.
Parallel mode: deterministic, using up to 16 threads.
Root relaxation solution time = 0,00 sec. (0,85 ticks)

        Nodes                                         Cuts/
   Node  Left     Objective  IInf  Best Integer    Best Bound    ItCnt     Gap

*     0+    0                          930,0000        0,0000           100,00%
*     0+    0                          657,0000        0,0000           100,00%
*     0+    0                          648,0000        0,0000           100,00%
*     0+    0                          631,0000        0,0000           100,00%
      0     0      310,0000   179      631,0000      310,0000       93   50,87%
      0     0      310,0000   179      631,0000     Cuts: 159      158   50,87%
      0     0      310,0000   179      631,0000     Cuts: 159      239   50,87%
*     0+    0                          588,0000      310,0000            47,28%
Detecting symmetries...
      0     2      310,0000   206      588,0000      310,0000      239   47,28%
Elapsed time = 0,11 sec. (37,70 ticks, tree = 0,02 MB, solutions = 5)
*   145+   79                          573,0000      310,0000            45,90%
*  2076  1343      integral     0      570,0000      362,7435    36950   36,36%
*  3388+ 2256                          563,0000      412,4997            26,73%

Performing restart 1

Repeating presolve.
Tried aggregator 1 time.
Reduced MIP has 239 rows, 240 columns, and 981 nonzeros.
Reduced MIP has 240 binaries, 0 generals, 0 SOSs, and 0 indicators.
Presolve time = 0,00 sec. (0,56 ticks)
Tried aggregator 1 time.
Reduced MIP has 239 rows, 240 columns, and 981 nonzeros.
Reduced MIP has 240 binaries, 0 generals, 0 SOSs, and 0 indicators.
Presolve time = 0,00 sec. (0,72 ticks)
Represolve time = 0,01 sec. (5,52 ticks)
   4538     0      313,9752   240      563,0000      Fract: 5   119962   22,64%
   4538     0      318,3200   240      563,0000      Fract: 4   120002   22,64%
   4538     0      319,4641   240      563,0000      Fract: 3   120024   22,64%
   4538     0      321,7878   240      563,0000      Fract: 5   120066   22,64%
   4538     0      324,8921   240      563,0000      Fract: 5   120094   22,64%
   4538     0      325,6225   240      563,0000      Fract: 3   120114   22,64%
   4538     2      325,6225   236      563,0000      435,5483   120114   22,64%
   5681   498      385,3174   223      563,0000      435,5483   144965   22,64%
   7723  2034      509,6692   195      563,0000      435,5483   219893   22,64%
   9948  3579      554,7859   166      563,0000      435,5483   296269   22,64%

Performing restart 2

Repeating presolve.
Tried aggregator 1 time.
Reduced MIP has 239 rows, 240 columns, and 981 nonzeros.
Reduced MIP has 240 binaries, 0 generals, 0 SOSs, and 0 indicators.
Presolve time = 0,02 sec. (0,56 ticks)
Tried aggregator 1 time.
Reduced MIP has 239 rows, 240 columns, and 981 nonzeros.
Reduced MIP has 240 binaries, 0 generals, 0 SOSs, and 0 indicators.
Presolve time = 0,00 sec. (0,72 ticks)
Represolve time = 0,04 sec. (15,02 ticks)
  10522     0      335,3094   236      563,0000      Fract: 5   329266   22,23%
  10522     0      338,3008   236      563,0000      Fract: 5   329353   22,23%
  10522     0      340,0167   236      563,0000      Fract: 7   329429   22,23%
  10522     0      340,7102   236      563,0000      Fract: 3   329497   22,23%
  10522     0      341,2448   236      563,0000      Fract: 2   329538   22,23%
  10522     0      341,9849   236      563,0000      Fract: 4   329598   22,23%
  10522     0      342,2148   236      563,0000      Fract: 4   329632   22,23%
  10522     2      342,2148   233      563,0000      437,8550   329632   22,23%
  12897  1183        cutoff            563,0000      437,8550   405145   22,23%
  15576  1810      561,6925   121      563,0000      512,4920   501669    8,97%
  18926   378        cutoff            563,0000      552,8352   623018    1,81%
* 19173   197      integral     0      562,0000      556,1414   624976    1,04%

Clique cuts applied:  56
Cover cuts applied:  472
Mixed integer rounding cuts applied:  13
Zero-half cuts applied:  4
Gomory fractional cuts applied:  49

Root node processing (before b&c):
  Real time             =    0,11 sec. (37,56 ticks)
Parallel b&c, 16 threads:
  Real time             =    2,95 sec. (2274,55 ticks)
  Sync time (average)   =    0,78 sec.
  Wait time (average)   =    0,01 sec.
                          ------------
Total (root+branch&cut) =    3,06 sec. (2312,11 ticks)
